
  32    1
  10

   0   0  11 2 3 4 5 6 7 10 12 14 15 16 
   2   1  10 31 30 29 28 27 25 20 19 18 13 
   5   8   7 30 25 23 19 17 13 11 
   3   3   7 31 27 25 24 18 13 8 
   4   3   6 31 30 29 28 27 9 
   6   9   5 25 24 22 17 8 
   8   7   5 26 25 24 20 18 
   5   7   5 29 28 26 23 21 
   4   7   4 25 23 22 18 
   8   9   4 27 24 22 18 
  10   6   3 27 24 18 
   4  10   3 24 22 18 
   6   4   3 26 22 21 
   6   4   2 22 18 
   8   5   2 30 23 
  10   9   2 22 21 
   2   6   1 18 
   1   3   1 21 
   8  10   1 24 
   5   9   1 23 
  10   8   1 32
   2   4   1 32
   7   7   1 32
   5  10   1 32
   3   3   1 32
   4   8   1 32
   5   4   1 32
   9   5   1 32
   5   3   1 32
   1   4   1 32
   7   4   1 32
   0   0   0 
